Version identifier: 22.1.0.0 | 2022-03-09 | 1a383f8ce
CPXPARAM_Threads                                 1
CPXPARAM_MIP_Strategy_VariableSelect             3
CPXPARAM_TimeLimit                               599.99998581399996
1 of 1 MIP starts provided solutions.
MIP start 'm1' defined initial solution with objective 1.0000.
Tried aggregator 1 time.
MIP Presolve eliminated 11 rows and 0 columns.
MIP Presolve modified 175 coefficients.
Reduced MIP has 1815 rows, 7800 columns, and 125454 nonzeros.
Reduced MIP has 7800 binaries, 0 generals, 0 SOSs, and 0 indicators.
Presolve time = 0.15 sec. (227.19 ticks)
Probing time = 0.02 sec. (24.92 ticks)
Tried aggregator 1 time.
Detecting symmetries...
MIP Presolve modified 12 coefficients.
Reduced MIP has 1815 rows, 7800 columns, and 125754 nonzeros.
Reduced MIP has 7800 binaries, 0 generals, 0 SOSs, and 0 indicators.
Presolve time = 0.11 sec. (171.91 ticks)
Probing time = 0.02 sec. (24.94 ticks)
Clique table members: 984.
MIP emphasis: balance optimality and feasibility.
MIP search method: dynamic search.
Parallel mode: none, using 1 thread.
Root relaxation solution time = 4.08 sec. (5322.70 ticks)

        Nodes                                         Cuts/
   Node  Left     Objective  IInf  Best Integer    Best Bound    ItCnt     Gap

*     0+    0                            1.0000    45150.0000              --- 
      0     0      300.0000  1148        1.0000      300.0000    12653     --- 
*     0+    0                           28.0000      300.0000           971.43%
      0     0      300.0000   565       28.0000      Cuts: 17    38061  971.43%
*     0+    0                          126.0000      300.0000           138.10%
      0     0      300.0000   694      126.0000      Cuts: 21    73208  138.10%
*     0+    0                          146.0000      300.0000           105.48%
      0     0      300.0000   246      146.0000      Cuts: 12   108720  105.48%
      0     0      300.0000   587      146.0000      Cuts: 50   136584  105.48%
Heuristic still looking.
Detecting symmetries...
      0     2      300.0000   214      146.0000      300.0000   136584  105.48%
Elapsed time = 119.79 sec. (145528.58 ticks, tree = 0.01 MB, solutions = 4)
      1     3      300.0000   354      146.0000      300.0000   152877  105.48%
      2     4      300.0000   267      146.0000      300.0000   169387  105.48%
      3     5      300.0000   694      146.0000      300.0000   180703  105.48%
      4     6      300.0000   229      146.0000      300.0000   197850  105.48%
      5     7      300.0000   274      146.0000      300.0000   205626  105.48%
      6     8      300.0000  1135      146.0000      300.0000   212163  105.48%
      7     9      300.0000  1513      146.0000      300.0000   217136  105.48%
      8    10      300.0000   607      146.0000      300.0000   218719  105.48%
      9    11      300.0000  1361      146.0000      300.0000   221583  105.48%
     11    13      300.0000  1125      146.0000      300.0000   223851  105.48%
Elapsed time = 153.91 sec. (186936.87 ticks, tree = 0.03 MB, solutions = 4)
     13    15      300.0000   823      146.0000      300.0000   234719  105.48%
     15    17      300.0000   375      146.0000      300.0000   238418  105.48%
     17    19      300.0000  1491      146.0000      300.0000   245419  105.48%
     19    21      300.0000   820      146.0000      300.0000   253063  105.48%
     20    22      300.0000   546      146.0000      300.0000   253180  105.48%
     21    23      300.0000   510      146.0000      300.0000   259118  105.48%
     22    24      300.0000  1067      146.0000      300.0000   260504  105.48%
     23    25      300.0000  1150      146.0000      300.0000   265187  105.48%
     24    26      300.0000   773      146.0000      300.0000   267317  105.48%
     25    27      300.0000  1227      146.0000      300.0000   271564  105.48%
Elapsed time = 168.42 sec. (204091.19 ticks, tree = 0.07 MB, solutions = 4)
     27    29      300.0000   950      146.0000      300.0000   273207  105.48%
     29    31      300.0000   748      146.0000      300.0000   279255  105.48%
     30    32      300.0000   572      146.0000      300.0000   280512  105.48%
     32    34      300.0000   584      146.0000      300.0000   288393  105.48%
     34    36      300.0000   594      146.0000      300.0000   294949  105.48%
     36    38      300.0000   530      146.0000      300.0000   298969  105.48%
     37    39      300.0000   720      146.0000      300.0000   308339  105.48%
     39    41      300.0000   555      146.0000      300.0000   310303  105.48%
     41    43      300.0000   500      146.0000      300.0000   311856  105.48%
     43    45      300.0000   440      146.0000      300.0000   317451  105.48%
Elapsed time = 182.22 sec. (218695.79 ticks, tree = 0.13 MB, solutions = 4)
     45    47      300.0000   433      146.0000      300.0000   319465  105.48%
     48    50      300.0000   387      146.0000      300.0000   324293  105.48%
     50    52      300.0000   371      146.0000      300.0000   329402  105.48%
     51    53      300.0000   412      146.0000      300.0000   337083  105.48%
     53    55      300.0000   362      146.0000      300.0000   341928  105.48%
     54    56      300.0000   626      146.0000      300.0000   358065  105.48%
     56    58      300.0000   421      146.0000      300.0000   367237  105.48%
     58    60      300.0000   736      146.0000      300.0000   371416  105.48%
     59    61      300.0000   869      146.0000      300.0000   375822  105.48%
     62    64      300.0000   539      146.0000      300.0000   380299  105.48%
Elapsed time = 210.26 sec. (248365.25 ticks, tree = 0.19 MB, solutions = 4)
     63    65      300.0000   482      146.0000      300.0000   385897  105.48%
     64    66      300.0000   508      146.0000      300.0000   390508  105.48%
     66    68      300.0000   513      146.0000      300.0000   394850  105.48%
     67    69      300.0000   711      146.0000      300.0000   403673  105.48%
     68    70      300.0000   613      146.0000      300.0000   411000  105.48%
     70    72      300.0000   705      146.0000      300.0000   414134  105.48%
     72    74      300.0000   626      146.0000      300.0000   420566  105.48%
     74    76      300.0000   672      146.0000      300.0000   431329  105.48%
     77    79      300.0000   690      146.0000      300.0000   436755  105.48%
     79    81      300.0000   676      146.0000      300.0000   446488  105.48%
Elapsed time = 222.31 sec. (261056.63 ticks, tree = 0.25 MB, solutions = 4)
*    80+   80                          229.0000      300.0000            31.00%
     81    83      300.0000   654      229.0000      300.0000   456063   31.00%
     83    85      300.0000   705      229.0000      300.0000   463456   31.00%
     86    88      300.0000   665      229.0000      300.0000   471779   31.00%
     88    90      300.0000   686      229.0000      300.0000   479615   31.00%
     90    92      300.0000   708      229.0000      300.0000   485934   31.00%
     92    94      300.0000   652      229.0000      300.0000   493346   31.00%
     94    96      300.0000   673      229.0000      300.0000   502944   31.00%
     97    99      300.0000   606      229.0000      300.0000   511372   31.00%
     98   100      300.0000   580      229.0000      300.0000   522791   31.00%
     99   101      300.0000   625      229.0000      300.0000   539276   31.00%
Elapsed time = 240.11 sec. (278570.60 ticks, tree = 0.31 MB, solutions = 5)
    101   103      300.0000   597      229.0000      300.0000   540103   31.00%
    102   104      300.0000   834      229.0000      300.0000   545983   31.00%
    104   106      300.0000   584      229.0000      300.0000   553259   31.00%
    106   108      300.0000   525      229.0000      300.0000   576007   31.00%
    108   110      300.0000   508      229.0000      300.0000   577888   31.00%
    110   112      300.0000   464      229.0000      300.0000   580277   31.00%
    112   114      300.0000   458      229.0000      300.0000   582793   31.00%
    114   116      300.0000   452      229.0000      300.0000   596593   31.00%
    115   117      300.0000   484      229.0000      300.0000   597710   31.00%
    117   119      300.0000   456      229.0000      300.0000   602346   31.00%
Elapsed time = 253.65 sec. (293335.19 ticks, tree = 0.37 MB, solutions = 5)
    119   121      300.0000   427      229.0000      300.0000   616506   31.00%
    120   121      299.0000   485      229.0000      300.0000   618934   31.00%
    122   122      299.0000   658      229.0000      300.0000   646044   31.00%
    123   123      300.0000   446      229.0000      300.0000   652737   31.00%
    125   124      299.0000   648      229.0000      300.0000   657398   31.00%
    127   125      300.0000   518      229.0000      300.0000   664737   31.00%
    128   125      299.4750   661      229.0000      300.0000   686753   31.00%
    131   128      299.9999   597      229.0000      300.0000   690551   31.00%
    134   130      299.9999   548      229.0000      300.0000   701639   31.00%
    137   131      299.0000   525      229.0000      300.0000   715974   31.00%
Elapsed time = 273.11 sec. (312898.34 ticks, tree = 0.41 MB, solutions = 5)
    140   134      299.0000   490      229.0000      300.0000   735495   31.00%
    142   136      299.0000   488      229.0000      300.0000   754195   31.00%
    144   138      299.0000   455      229.0000      300.0000   774995   31.00%
    146   139      299.0000   453      229.0000      300.0000   797244   31.00%
    147   140      299.0000   459      229.0000      300.0000   815263   31.00%
    150   143      299.0000   465      229.0000      300.0000   820536   31.00%
    153   146      299.0000   460      229.0000      300.0000   823795   31.00%
    155   147      299.0000   446      229.0000      300.0000   831337   31.00%
    157   148      299.0000   435      229.0000      300.0000   839287   31.00%
    159   149      299.0000   435      229.0000      300.0000   847601   31.00%
Elapsed time = 290.37 sec. (328956.47 ticks, tree = 0.47 MB, solutions = 5)
    160   149      298.0000   567      229.0000      300.0000   853883   31.00%
    163   152      299.0000   429      229.0000      300.0000   858373   31.00%
    165   153      298.9337   522      229.0000      300.0000   864620   31.00%
    168   156      299.0000   428      229.0000      300.0000   868054   31.00%
    171   157      298.9389   515      229.0000      300.0000   878493   31.00%
    174   159      299.0000   423      229.0000      300.0000   885045   31.00%
    177   161      299.0000   380      229.0000      300.0000   890900   31.00%
    179   162      299.0000   424      229.0000      300.0000   900411   31.00%
    180   162      298.0000   435      229.0000      300.0000   906185   31.00%
    190   169      299.0000   428      229.0000      300.0000   928164   31.00%
Elapsed time = 308.10 sec. (346349.32 ticks, tree = 0.53 MB, solutions = 5)
    200   176      299.0000   434      229.0000      300.0000   953190   31.00%
    210   180      298.0000   512      229.0000      300.0000   987680   31.00%
    219   184      298.9086   528      229.0000      300.0000  1016346   31.00%
    229   194      298.0000   395      229.0000      300.0000  1030055   31.00%
    237   199      298.0000   305      229.0000      300.0000  1061168   31.00%
    244   204      298.0000   294      229.0000      300.0000  1092503   31.00%
    250   207      296.0000   540      229.0000      300.0000  1121917   31.00%
    259   215      297.0000   388      229.0000      300.0000  1148993   31.00%
    264   220      297.0000   395      229.0000      300.0000  1159344   31.00%
    272   227      297.0000   363      229.0000      300.0000  1179647   31.00%
Elapsed time = 352.60 sec. (388873.96 ticks, tree = 0.72 MB, solutions = 5)
    280   234      296.0000   343      229.0000      300.0000  1205573   31.00%
    290   243      297.0000   359      229.0000      300.0000  1229595   31.00%
    300   248      296.0000   439      229.0000      300.0000  1254188   31.00%
    312   257      296.0000   409      229.0000      300.0000  1275329   31.00%
    320   265      296.0000   433      229.0000      300.0000  1285156   31.00%
    332   271    infeasible            229.0000      300.0000  1309579   31.00%
    347   280      294.0000   279      229.0000      300.0000  1332539   31.00%
    360   286      293.0000   351      229.0000      300.0000  1362521   31.00%
    373   293      294.0000   282      229.0000      300.0000  1389810   31.00%
    386   301      293.0000   271      229.0000      300.0000  1413454   31.00%
Elapsed time = 396.73 sec. (430705.85 ticks, tree = 0.98 MB, solutions = 5)
    400   312      291.5000   237      229.0000      300.0000  1435738   31.00%
    418   325      292.6619   357      229.0000      300.0000  1464300   31.00%
    434   333      290.9559   308      229.0000      300.0000  1495001   31.00%
    453   342      290.0000   275      229.0000      300.0000  1519889   31.00%
    474   353      289.2903   297      229.0000      300.0000  1541563   31.00%
    500   365      289.0000   296      229.0000      300.0000  1561600   31.00%
    525   382      287.0000   216      229.0000      300.0000  1582452   31.00%
    560   403      285.0000   202      229.0000      300.0000  1598792   31.00%
    594   407      300.0000   722      229.0000      300.0000  1618286   31.00%
    598   411      300.0000   643      229.0000      300.0000  1630009   31.00%
Elapsed time = 447.04 sec. (481484.97 ticks, tree = 1.35 MB, solutions = 5)
    600   413      300.0000   628      229.0000      300.0000  1632984   31.00%
    605   418      300.0000   535      229.0000      300.0000  1647048   31.00%
    609   422      300.0000   424      229.0000      300.0000  1660683   31.00%
    614   427      300.0000   419      229.0000      300.0000  1673636   31.00%
    619   432      300.0000   583      229.0000      300.0000  1693416   31.00%
    624   437      300.0000   603      229.0000      300.0000  1711495   31.00%
    630   443      300.0000   396      229.0000      300.0000  1725400   31.00%
    635   448      300.0000   399      229.0000      300.0000  1742726   31.00%
    640   453      300.0000   376      229.0000      300.0000  1755480   31.00%
    647   460      300.0000   404      229.0000      300.0000  1777657   31.00%
Elapsed time = 492.30 sec. (531533.81 ticks, tree = 1.51 MB, solutions = 5)
    652   465      300.0000   365      229.0000      300.0000  1795505   31.00%
    658   471      300.0000   338      229.0000      300.0000  1813789   31.00%
    662   475      300.0000   364      229.0000      300.0000  1836218   31.00%
    668   481      300.0000   334      229.0000      300.0000  1859156   31.00%
    675   488      300.0000   372      229.0000      300.0000  1883964   31.00%
    682   495      300.0000   404      229.0000      300.0000  1906011   31.00%
    686   499      300.0000   373      229.0000      300.0000  1922327   31.00%
    691   504      300.0000   296      229.0000      300.0000  1938820   31.00%
    695   508      300.0000   297      229.0000      300.0000  1954389   31.00%
    700   513      300.0000   487      229.0000      300.0000  1977514   31.00%
Elapsed time = 533.07 sec. (574827.56 ticks, tree = 1.68 MB, solutions = 5)
    705   518      300.0000   363      229.0000      300.0000  1996235   31.00%
    711   524      300.0000   440      229.0000      300.0000  2030708   31.00%
    716   529      300.0000   424      229.0000      300.0000  2049388   31.00%
    721   534      300.0000   485      229.0000      300.0000  2070618   31.00%
    726   539      300.0000   280      229.0000      300.0000  2085746   31.00%
    729   542      300.0000   237      229.0000      300.0000  2101182   31.00%
    734   547      300.0000   468      229.0000      300.0000  2122653   31.00%
    738   551      300.0000   367      229.0000      300.0000  2141494   31.00%
    742   555      300.0000   472      229.0000      300.0000  2164436   31.00%
    747   560      300.0000   239      229.0000      300.0000  2177572   31.00%
Elapsed time = 576.98 sec. (621371.57 ticks, tree = 1.85 MB, solutions = 5)
    753   566      300.0000   229      229.0000      300.0000  2204157   31.00%
    757   570      300.0000   431      229.0000      300.0000  2221823   31.00%

Clique cuts applied:  50
Zero-half cuts applied:  20
Lift and project cuts applied:  2

Root node processing (before b&c):
  Real time             =  119.56 sec. (145314.52 ticks)
Sequential b&c:
  Real time             =  480.45 sec. (499434.55 ticks)
                          ------------
Total (root+branch&cut) =  600.01 sec. (644749.07 ticks)
Primal:	229
Dual:	300
Status:	Feasible
Time:	600.04
Sequence:
	9
	5
	16
	1
	10
	22
	20
	15
	9
	21
	24
	6
	9
	22
	20
	1
	0
	17
	11
	19
	18
	7
	11
	8
	14
	17
	13
	3
	0
	6
	9
	15
	10
	1
	0
	3
	0
	3
	14
	8
	12
	19
	0
	8
	5
	23
	2
	20
	5
	24
	21
	20
	22
	23
	5
	16
	6
	9
	22
	24
	6
	14
	17
	11
	19
	18
	7
	13
	8
	12
	3
	0
	19
	18
	3
	0
	8
	14
	3
	0
	8
	12
	19
	0
	3
	5
	24
	21
	16
	5
	23
	2
	23
	21
	24
	5
	19
	0
	3
	12
	8
	14
	19
	18
	3
	18
	19
	0
	15
	4
	11
	2
	6
	17
	15
	4
	13
	2
	15
	9
	15
	21
	13
	17
	11
	2
	15
	7
	13
	17
	1
	0
	19
	11
	17
	0
	1
	19
	2
	15
	11
	19
	0
	15
	22
	20
	21
	24
	15
	4
	6
	0
	15
	3
	21
	0
	3
	11
	17
	21
	20
	15
	9
	2
	20
	15
	9
	2
	23
	6
	18
	4
	13
	8
	21
	9
	15
	20
	2
	9
	1
	24
	21
	10
	15
	23
	21
	16
	1
	17
	6
	10
	15
	20
	2
	9
	6
	15
	16
	21
	5
	16
	6
	9
	15
	20
	21
	15
	11
	19
	2
	4
	13
	8
	14
	17
	13
	3
	18
	7
	13
	8
	12
	17
	13
	19
	18
	4
	13
